nBusiness = 76;
nMeetings = 195;
nTables = 14;
nTotalSlots = 22;
nMorningSlots = 12;

requested = [|3, 9, 1,
|4, 18, 3,
|4, 19, 1,
|4, 29, 1,
|4, 39, 1,
|9, 1, 1,
|9, 2, 1,
|10, 19, 3,
|10, 29, 3,
|10, 31, 3,
|10, 40, 3,
|14, 8, 1,
|14, 12, 1,
|14, 15, 1,
|14, 20, 2,
|14, 25, 2,
|14, 26, 1,
|14, 34, 2,
|18, 1, 2,
|18, 3, 2,
|18, 16, 2,
|18, 20, 1,
|18, 22, 2,
|18, 31, 1,
|18, 36, 1,
|18, 45, 1,
|20, 30, 3,
|20, 31, 3,
|21, 17, 3,
|21, 29, 1,
|22, 51, 1,
|22, 53, 1,
|26, 2, 1,
|28, 64, 3,
|28, 66, 3,
|29, 8, 3,
|29, 9, 3,
|29, 13, 3,
|29, 15, 3,
|29, 20, 3,
|29, 22, 3,
|29, 36, 3,
|29, 42, 3,
|29, 53, 3,
|30, 3, 2,
|30, 10, 2,
|30, 12, 2,
|30, 14, 1,
|30, 18, 1,
|30, 19, 1,
|30, 22, 2,
|30, 29, 1,
|30, 40, 2,
|30, 51, 2,
|30, 53, 1,
|31, 29, 3,
|31, 30, 3,
|32, 14, 3,
|32, 50, 3,
|32, 59, 3,
|33, 4, 2,
|33, 7, 1,
|33, 13, 1,
|33, 19, 2,
|33, 26, 2,
|33, 57, 2,
|33, 58, 3,
|33, 63, 3,
|33, 66, 3,
|36, 53, 3,
|38, 2, 1,
|38, 7, 1,
|38, 15, 3,
|38, 19, 1,
|38, 21, 3,
|38, 22, 3,
|38, 23, 3,
|38, 31, 1,
|38, 36, 1,
|38, 37, 1,
|38, 42, 1,
|39, 25, 1,
|39, 29, 1,
|39, 33, 1,
|39, 38, 2,
|39, 52, 2,
|39, 60, 2,
|41, 17, 1,
|44, 30, 3,
|44, 41, 1,
|44, 43, 1,
|47, 26, 3,
|47, 45, 3,
|48, 18, 2,
|48, 19, 2,
|48, 20, 2,
|48, 22, 2,
|48, 23, 2,
|48, 25, 2,
|48, 29, 2,
|48, 33, 2,
|48, 36, 2,
|48, 37, 2,
|51, 1, 3,
|51, 2, 3,
|51, 3, 3,
|51, 76, 3,
|53, 1, 3,
|53, 2, 3,
|53, 3, 3,
|53, 10, 1,
|53, 30, 1,
|53, 76, 3,
|54, 1, 3,
|54, 2, 3,
|54, 3, 3,
|54, 20, 1,
|54, 31, 1,
|54, 37, 1,
|54, 40, 1,
|54, 41, 1,
|54, 43, 1,
|54, 46, 1,
|54, 76, 3,
|56, 1, 3,
|56, 2, 3,
|56, 3, 3,
|56, 76, 3,
|58, 3, 1,
|58, 17, 1,
|58, 24, 1,
|58, 29, 1,
|58, 38, 1,
|58, 40, 3,
|58, 41, 2,
|58, 63, 3,
|58, 64, 3,
|58, 66, 3,
|58, 67, 3,
|58, 68, 3,
|58, 69, 3,
|58, 70, 3,
|58, 71, 3,
|58, 72, 3,
|58, 73, 3,
|59, 1, 3,
|59, 2, 3,
|59, 3, 3,
|59, 76, 3,
|60, 1, 3,
|60, 2, 3,
|60, 3, 3,
|60, 76, 3,
|61, 3, 3,
|61, 13, 3,
|61, 19, 3,
|61, 22, 3,
|61, 25, 3,
|61, 29, 3,
|61, 36, 3,
|61, 38, 3,
|61, 51, 3,
|61, 57, 3,
|62, 1, 1,
|62, 3, 1,
|62, 15, 1,
|62, 16, 1,
|62, 17, 1,
|62, 18, 1,
|62, 19, 1,
|62, 20, 1,
|62, 21, 1,
|62, 22, 1,
|62, 23, 1,
|62, 24, 1,
|64, 16, 3,
|64, 17, 3,
|64, 19, 3,
|64, 21, 3,
|64, 23, 3,
|64, 25, 3,
|64, 32, 3,
|64, 33, 3,
|64, 38, 3,
|64, 39, 3,
|64, 40, 3,
|64, 41, 3,
|64, 43, 3,
|65, 6, 3,
|65, 7, 3,
|65, 9, 3,
|65, 10, 3,
|65, 11, 3,
|65, 27, 3,
|65, 42, 3,
|];

nMeetingsBusiness = [9, 9, 12, 5, 0, 1, 3, 2, 5, 7, 1, 2, 3, 9, 4, 3, 5, 12, 9, 8, 5, 9, 4, 2, 5, 4, 1, 2, 18, 15, 7, 4, 12, 1, 0, 6, 3, 15, 8, 5, 5, 3, 3, 3, 2, 1, 2, 10, 0, 1, 7, 1, 10, 11, 0, 4, 2, 18, 5, 5, 10, 12, 2, 15, 7, 3, 1, 1, 1, 1, 1, 1, 1, 0, 0, 6, ];

fixat = [0,0,0,0,0,0,0,0,0,0,0,0,0,0,0,0,0,0,0,0,0,0,0,0,0,0,0,0,0,0,0,0,0,0,0,0,0,0,0,0,0,0,0,0,0,0,0,0,0,0,0,0,0,0,0,0,0,0,0,0,0,0,0,0,0,0,0,0,0,0,0,0,0,0,0,0,0,0,0,0,0,0,0,0,0,0,0,0,0,0,0,0,0,0,0,0,0,0,0,0,0,0,0,0,0,0,0,0,0,0,0,0,0,0,0,0,0,0,0,0,0,0,0,0,0,0,0,0,0,0,0,0,0,0,0,0,0,0,0,0,0,0,0,0,0,0,0,0,0,0,0,0,0,0,0,0,0,0,0,0,0,0,0,0,0,0,0,0,0,0,0,0,0,0,0,0,0,0,0,0,0,0,0,0,0,0,0,0,0,0,0,0,0,0,0,];

forbidden = [{0,},
{0,},
{0,},
{0,},
{0,},
{0,},
{0,},
{0,},
{0,},
{0,},
{0,},
{0,},
{0,},
{0,},
{0,},
{0,},
{0,},
{0,},
{0,},
{0,},
{0,},
{0,},
{0,},
{0,},
{0,},
{0,},
{0,},
{0,},
{0,},
{0,},
{0,},
{0,},
{0,},
{0,},
{0,},
{0,},
{0,},
{0,},
{0,},
{0,},
{0,},
{0,},
{0,},
{0,},
{0,},
{0,},
{0,},
{0,},
{0,},
{0,},
{0,},
{0,},
{0,},
{0,},
{0,},
{0,},
{0,},
{0,},
{0,},
{0,},
{0,},
{0,},
{0,},
{0,},
{0,},
{0,},
{0,},
{0,},
{0,},
{0,},
{0,},
{0,},
{0,},
{0,},
{0,},
{0,},
];